W=6;
H=6;

MAX_TIME=29;
MAX_TRACKS=21;

TARGET=(6,6);

TRAINS=[(3,2,LEFT),(3,4,RIGHT),(2,3,TOP),(4,3,DOWN)];
DECOYS=[];

INIT_POS=[
(1,1,ROCK),
(1,2,ROCK),
(2,1,ROCK),
(2,3,STRAIGHT_TD),
(3,2,STRAIGHT_RL),
(3,4,STRAIGHT_RL),
(3,6,ESWITCH_T_D_L),
(4,3,STRAIGHT_TD),
(6,3,ESWITCH_R_L_T),
(6,6,STRAIGHT_RL),
];
TUNNEL_PAIRS=[];

GATES=[];
ACTIVATIONS=[];

DSWITCHES=[];
STATIONS=[];

SEMAPHORE_SUPPLY=0;
